p edge 45 124
e 1 2
e 1 5
e 1 7
e 1 10
e 1 13
e 1 14
e 1 17
e 1 20
e 1 27
e 1 28
e 1 33
e 1 37
e 1 38
e 1 40
e 2 3
e 2 5
e 2 6
e 2 7
e 2 10
e 2 13
e 2 17
e 2 20
e 2 21
e 2 25
e 2 27
e 2 33
e 3 4
e 3 8
e 3 11
e 3 12
e 3 15
e 3 16
e 3 19
e 3 21
e 3 22
e 4 10
e 4 15
e 4 20
e 4 25
e 4 28
e 4 29
e 5 7
e 5 10
e 5 13
e 5 14
e 5 15
e 5 17
e 5 20
e 5 25
e 5 27
e 5 29
e 5 33
e 5 38
e 6 7
e 6 8
e 6 17
e 6 20
e 6 21
e 6 33
e 6 39
e 7 9
e 7 10
e 7 13
e 7 17
e 7 33
e 7 39
e 7 41
e 8 11
e 8 12
e 8 13
e 8 17
e 8 19
e 8 21
e 8 32
e 8 42
e 9 11
e 9 12
e 9 14
e 9 23
e 9 41
e 10 11
e 10 17
e 10 20
e 10 28
e 10 38
e 11 12
e 11 16
e 11 19
e 12 13
e 12 16
e 12 19
e 13 14
e 13 28
e 13 37
e 14 18
e 15 16
e 15 25
e 15 29
e 16 18
e 16 19
e 17 21
e 18 24
e 18 34
e 19 21
e 19 42
e 22 24
e 22 26
e 23 44
e 24 34
e 24 35
e 24 36
e 25 29
e 26 28
e 26 37
e 27 33
e 27 40
e 28 37
e 30 31
e 30 35
e 30 36
e 31 35
e 31 36
e 35 36
e 43 45
